20
1 0 6
2 0 6
2 1 12
3 0 11
3 1 8
3 2 9
4 0 11
4 1 7
4 2 6
4 3 8
5 0 8
5 1 5
5 2 10
5 3 7
5 4 4
6 0 5
6 1 2
6 2 12
6 3 4
6 4 1
6 5 6
7 0 5
7 1 5
7 2 5
7 3 11
7 4 11
7 5 6
7 6 11
8 0 1
8 1 3
8 2 12
8 3 13
8 4 10
8 5 12
8 6 6
8 7 2
9 0 9
9 1 5
9 2 12
9 3 12
9 4 13
9 5 2
9 6 9
9 7 4
9 8 10
10 0 10
10 1 10
10 2 11
10 3 3
10 4 11
10 5 4
10 6 4
10 7 9
10 8 5
10 9 5
11 0 8
11 1 8
11 2 7
11 3 5
11 4 2
11 5 4
11 6 5
11 7 1
11 8 3
11 9 13
11 10 2
12 0 3
12 1 9
12 2 11
12 3 3
12 4 8
12 5 11
12 6 8
12 7 3
12 8 9
12 9 13
12 10 11
12 11 1
13 0 11
13 1 12
13 2 2
13 3 6
13 4 10
13 5 4
13 6 13
13 7 8
13 8 8
13 9 4
13 10 3
13 11 2
13 12 5
14 0 6
14 1 8
14 2 8
14 3 13
14 4 9
14 5 13
14 6 2
14 7 3
14 8 6
14 9 5
14 10 13
14 11 6
14 12 8
14 13 1
15 0 1
15 1 9
15 2 1
15 3 3
15 4 2
15 5 8
15 6 13
15 7 7
15 8 12
15 9 3
15 10 3
15 11 3
15 12 9
15 13 10
15 14 5
16 0 3
16 1 11
16 2 8
16 3 6
16 4 11
16 5 10
16 6 6
16 7 6
16 8 4
16 9 10
16 10 3
16 11 8
16 12 2
16 13 9
16 14 3
16 15 5
17 0 8
17 1 8
17 2 3
17 3 13
17 4 9
17 5 3
17 6 8
17 7 7
17 8 11
17 9 6
17 10 11
17 11 6
17 12 8
17 13 10
17 14 6
17 15 12
17 16 6
18 0 8
18 1 6
18 2 7
18 3 7
18 4 7
18 5 7
18 6 11
18 7 10
18 8 10
18 9 1
18 10 1
18 11 10
18 12 11
18 13 2
18 14 7
18 15 6
18 16 4
18 17 1
19 0 5
19 1 5
19 2 1
19 3 2
19 4 3
19 5 6
19 6 1
19 7 10
19 8 4
19 9 13
19 10 6
19 11 6
19 12 3
19 13 7
19 14 13
19 15 7
19 16 7
19 17 11
19 18 4
